n = 20;
m = 4;
d_raw = [| 44, 57, 41, 57, 39, 17, 27, 29, 68, 67, 37, 42, 29, 47, 51, 47, 59, 28, 42, 68
         | 22, 41, 54, 26, 50, 63, 60, 57, 55, 39, 44, 63, 52, 57, 54, 42, 33, 56, 62, 33
         | 58, 41, 30, 57, 10, 33, 35, 36, 50, 47, 46, 50, 20, 67, 31, 37, 28, 54, 58, 57
         | 30, 34, 27, 46, 18, 51, 63, 50, 61, 58, 47, 56, 28, 67, 52, 36, 26, 52, 67, 44 |];
p_raw = [2, 1, 2, 2, 1, 2, 2, 0, 2, 2, 2, 2, 2, 2, 2, 1, 2, 2, 2, 2];
P_raw = [| |];